Problem:    
Rows:       256
Columns:    89 (72 integer, 72 binary)
Non-zeros:  960
Status:     INTEGER OPTIMAL
Objective:  value = 168.475095 (MINimum)

   No.   Row name        Activity     Lower bound   Upper bound
------ ------------    ------------- ------------- -------------
     1 r.5                   1168.48             0               
     2 r.6                  -925.348       -975.85               
     3 r.7                   168.475             0               
     4 r.8                  -962.399      -965.389               
     5 r.9                   168.475             0               
     6 r.10                 -971.599      -974.589               
     7 r.11                  1168.48             0               
     8 r.12                 -958.355      -964.401               
     9 r.13                  168.475             0               
    10 r.14                  101.507      -956.531               
    11 r.15                  1168.48             0               
    12 r.16                 -898.493      -940.138               
    13 r.17                  1168.48             0               
    14 r.18                 -973.998      -976.987               
    15 r.19                  168.475             0               
    16 r.20                  44.5555      -966.619               
    17 r.21                  1168.48             0               
    18 r.22                 -950.441       -978.33               
    19 r.23                  168.475             0               
    20 r.24                  76.1074      -970.465               
    21 r.25                  1168.48             0               
    22 r.26                 -998.897      -998.897               
    23 r.27                  168.475             0               
    24 r.28                  5.89994      -989.644               
    25 r.29                  1168.48             0               
    26 r.30                 -831.525      -906.177               
    27 r.31                  168.475             0               
    28 r.32                  168.475      -932.931               
    29 r.33                  168.475             0               
    30 r.34                  168.475       -906.23               
    31 r.35                  1168.48             0               
    32 r.36                 -831.525      -933.032               
    33 r.37                        1             1             = 
    34 r.38                        1             1             = 
    35 r.39                        1             1             = 
    36 r.40                        1             1             = 
    37 r.41                        1             1             = 
    38 r.42                        1             1             = 
    39 r.43                        1             1             = 
    40 r.44                        1             1             = 
    41 r.45                     1001             2               
    42 r.46                    -1001         -1001               
    43 r.47                  953.749      -974.589               
    44 r.48                     1001             2               
    45 r.49                    -1001         -1001               
    46 r.50                  3004.04      -964.401               
    47 r.51                     1001             2               
    48 r.52                    -1001         -1001               
    49 r.53                  2026.85      -956.531               
    50 r.54                     1001             2               
    51 r.55                    -1001         -1001               
    52 r.56                  3063.91      -940.138               
    53 r.57                        2             2               
    54 r.58                       -2         -1001               
    55 r.59                 -48.6499      -976.987               
    56 r.60                     1000             2               
    57 r.61                    -1000         -1001               
    58 r.62                  3006.95      -966.619               
    59 r.63                        2             2               
    60 r.64                       -2         -1001               
    61 r.65                 -25.0931       -978.33               
    62 r.66                     1000             2               
    63 r.67                    -1000         -1001               
    64 r.68                  3038.51      -970.465               
    65 r.69                 -928.338       -975.85               
    66 r.70                 -965.389      -965.389               
    67 r.71                 -928.338       -975.85               
    68 r.72                 -965.389      -965.389               
    69 r.73                 -906.177      -906.177               
    70 r.74                  93.8228      -932.931               
    71 r.75                  130.874      -906.177               
    72 r.76                  1130.87      -932.931               
    73 r.77                     1001             2               
    74 r.78                    -1001         -1001               
    75 r.79                  2093.82       -906.23               
    76 r.80                     1001             2               
    77 r.81                    -1001         -1001               
    78 r.82                  3130.87      -933.032               
    79 r.83                     1001             2               
    80 r.84                    -1001         -1001               
    81 r.85                  3046.25       24.1496               
    82 r.86                     1001             2               
    83 r.87                    -1001         -1001               
    84 r.88                  995.956       34.6114               
    85 r.89                     1000             2               
    86 r.90                    -1000         -1001               
    87 r.91                  3073.11      -956.531               
    88 r.92                        2             2               
    89 r.93                       -2         -1001               
    90 r.94                 -940.138      -940.138               
    91 r.95                     1001             2               
    92 r.96                    -1001         -1001               
    93 r.97                   2997.6      -976.987               
    94 r.98                     1001             2               
    95 r.99                    -1001         -1001               
    96 r.100                 2002.91      -966.619               
    97 r.101                    1001             2               
    98 r.102                   -1001         -1001               
    99 r.103                 3021.16       -978.33               
   100 r.104                    1001             2               
   101 r.105                   -1001         -1001               
   102 r.106                 2034.46      -970.465               
   103 r.107                -974.589      -974.589               
   104 r.108                -961.344      -964.401               
   105 r.109                -974.589      -974.589               
   106 r.110                -961.344      -964.401               
   107 r.111                    1001             2               
   108 r.112                   -1001         -1001               
   109 r.113                 3140.07      -906.177               
   110 r.114                    1001             2               
   111 r.115                   -1001         -1001               
   112 r.116                 2126.83      -932.931               
   113 r.117                 1140.07       -906.23               
   114 r.118                 140.074      -933.032               
   115 r.119                  126.83       -906.23               
   116 r.120                 -873.17      -933.032               
   117 r.121                    1001             2               
   118 r.122                   -1001         -1001               
   119 r.123                 1973.15       24.1496               
   120 r.124                    1001             2               
   121 r.125                   -1001         -1001               
   122 r.126                 936.094       34.6114               
   123 r.127                    1000             2               
   124 r.128                   -1000         -1001               
   125 r.129                 926.894       25.4114               
   126 r.130                       2             2               
   127 r.131                      -2         -1001               
   128 r.132                 940.138        35.599               
   129 r.133                 73.6176      -956.531               
   130 r.134                -926.382      -940.138               
   131 r.135                 59.8616      -956.531               
   132 r.136                -940.138      -940.138               
   133 r.137                    1001             2               
   134 r.138                   -1001         -1001               
   135 r.139                 1948.05       -978.33               
   136 r.140                    1001             2               
   137 r.141                   -1001         -1001               
   138 r.142                  1974.6      -970.465               
   139 r.143                 98.5172      -956.531               
   140 r.144                -901.483      -940.138               
   141 r.145                 98.5172      -956.531               
   142 r.146                -901.483      -940.138               
   143 r.147                    1001             2               
   144 r.148                   -1001         -1001               
   145 r.149                 2066.97      -906.177               
   146 r.150                    1001             2               
   147 r.151                   -1001         -1001               
   148 r.152                 2066.97      -932.931               
   149 r.153                 66.9681       -906.23               
   150 r.154                -933.032      -933.032               
   151 r.155                 66.9681       -906.23               
   152 r.156                -933.032      -933.032               
   153 r.157                       2             2               
   154 r.158                      -2         -1001               
   155 r.159                 46.7629       24.1496               
   156 r.160                    1000             2               
   157 r.161                   -1000         -1001               
   158 r.162                 995.956       34.6114               
   159 r.163                    1001             2               
   160 r.164                   -1001         -1001               
   161 r.165                 1000.51       25.4114               
   162 r.166                    1001             2               
   163 r.167                   -1001         -1001               
   164 r.168                    2000        35.599               
   165 r.169                       2             2               
   166 r.170                      -2         -1001               
   167 r.171                 -978.33       -978.33               
   168 r.172                    1000             2               
   169 r.173                   -1000         -1001               
   170 r.174                 2034.46      -970.465               
   171 r.175                -976.987      -976.987               
   172 r.176                 41.5657      -966.619               
   173 r.177                -976.987      -976.987               
   174 r.178                 41.5657      -966.619               
   175 r.179                       2             2               
   176 r.180                      -2         -1001               
   177 r.181                -859.414      -906.177               
   178 r.182                    1000             2               
   179 r.183                   -1000         -1001               
   180 r.184                 2126.83      -932.931               
   181 r.185                 140.586       -906.23               
   182 r.186                -859.414      -933.032               
   183 r.187                  126.83       -906.23               
   184 r.188                 -873.17      -933.032               
   185 r.189                       2             2               
   186 r.190                      -2         -1001               
   187 r.191                 24.1496       24.1496               
   188 r.192                    1000             2               
   189 r.193                   -1000         -1001               
   190 r.194                 962.949       34.6114               
   191 r.195                    1001             2               
   192 r.196                   -1001         -1001               
   193 r.197                 977.899       25.4114               
   194 r.198                    1001             2               
   195 r.199                   -1001         -1001               
   196 r.200                 1966.99        35.599               
   197 r.201                    1001             2               
   198 r.202                   -1001         -1001               
   199 r.203                    2051        43.469               
   200 r.204                    1001             2               
   201 r.205                   -1001         -1001               
   202 r.206                 2026.85       59.8616               
   203 r.207                       2             2               
   204 r.208                      -2         -1001               
   205 r.209                   975.5       23.0126               
   206 r.210                    1000             2               
   207 r.211                   -1000         -1001               
   208 r.212                  1969.9       33.3809               
   209 r.213                -953.431       -978.33               
   210 r.214                 73.1176      -970.465               
   211 r.215                -953.431       -978.33               
   212 r.216                 73.1176      -970.465               
   213 r.217                -882.028      -906.177               
   214 r.218                 117.972      -932.931               
   215 r.219                -906.177      -906.177               
   216 r.220                 93.8228      -932.931               
   217 r.221                 117.972       -906.23               
   218 r.222                -882.028      -933.032               
   219 r.223                 93.8228       -906.23               
   220 r.224                -906.177      -933.032               
   221 r.225                    1001             2               
   222 r.226                   -1001         -1001               
   223 r.227                 859.926       25.4114               
   224 r.228                    1001             2               
   225 r.229                   -1001         -1001               
   226 r.230                 1873.17        35.599               
   227 r.231                    1001             2               
   228 r.232                   -1001         -1001               
   229 r.233                 1933.03        43.469               
   230 r.234                    1001             2               
   231 r.235                   -1001         -1001               
   232 r.236                 1933.03       59.8616               
   233 r.237                       2             2               
   234 r.238                      -2         -1001               
   235 r.239                 857.527       23.0126               
   236 r.240                    1000             2               
   237 r.241                   -1000         -1001               
   238 r.242                 1876.08       33.3809               
   239 r.243                    1001             2               
   240 r.244                   -1001         -1001               
   241 r.245                    2000       -906.23               
   242 r.246                    1001             2               
   243 r.247                   -1001         -1001               
   244 r.248                    2000      -933.032               
   245 r.249                    1001             2               
   246 r.250                   -1001         -1001               
   247 r.251                 1906.18       24.1496               
   248 r.252                    1001             2               
   249 r.253                   -1001         -1001               
   250 r.254                 869.126       34.6114               
   251 r.255                    1001             2               
   252 r.256                   -1001         -1001               
   253 r.257                    2000       93.8228               
   254 r.258                    1001             2               
   255 r.259                   -1001         -1001               
   256 r.260                    2000       67.0694               

   No. Column name       Activity     Lower bound   Upper bound
------ ------------    ------------- ------------- -------------
     1 tt                    168.475             0               
     2 s_1_1        *              1             0             1 
     3 t_1_1                 93.8228             0               
     4 s_1_7        *              1             0             1 
     5 s_2_1        *              0             0             1 
     6 t_2_1                 1130.87             0               
     7 s_2_7        *              0             0             1 
     8 s_1_2        *              0             0             1 
     9 t_1_2                 1140.07             0               
    10 s_1_8        *              0             0             1 
    11 s_2_2        *              1             0             1 
    12 t_2_2                  126.83             0               
    13 s_2_8        *              1             0             1 
    14 s_1_3        *              0             0             1 
    15 t_1_3                 66.9681             0               
    16 s_2_3        *              1             0             1 
    17 t_2_3                 66.9681             0               
    18 s_1_4        *              1             0             1 
    19 t_1_4                 140.586             0               
    20 s_2_4        *              0             0             1 
    21 t_2_4                  126.83             0               
    22 s_1_5        *              1             0             1 
    23 t_1_5                 117.972             0               
    24 s_2_5        *              0             0             1 
    25 t_2_5                 93.8228             0               
    26 s_1_6        *              1             0             1 
    27 t_1_6                 165.485             0               
    28 s_2_6        *              0             0             1 
    29 t_2_6                 165.485             0               
    30 t_1_7                       0             0               
    31 t_2_7                       0             0               
    32 t_1_8                       0             0               
    33 t_2_8                       0             0               
    34 r_1_1_2      *              1             0             1 
    35 u_1_1_2      *              0             0             1 
    36 r_2_1_2      *              1             0             1 
    37 u_2_1_2      *              0             0             1 
    38 r_1_1_3      *              1             0             1 
    39 u_1_1_3      *              0             0             1 
    40 r_2_1_3      *              1             0             1 
    41 u_2_1_3      *              0             0             1 
    42 r_1_1_4      *              0             0             1 
    43 u_1_1_4      *              0             0             1 
    44 r_2_1_4      *              1             0             1 
    45 u_2_1_4      *              0             0             1 
    46 r_1_1_5      *              0             0             1 
    47 u_1_1_5      *              0             0             1 
    48 r_2_1_5      *              1             0             1 
    49 u_2_1_5      *              0             0             1 
    50 r_1_1_8      *              1             0             1 
    51 u_1_1_8      *              0             0             1 
    52 r_2_1_8      *              1             0             1 
    53 u_2_1_8      *              0             0             1 
    54 r_1_2_3      *              1             0             1 
    55 u_1_2_3      *              0             0             1 
    56 r_2_2_3      *              0             0             1 
    57 u_2_2_3      *              1             0             1 
    58 r_1_2_4      *              1             0             1 
    59 u_1_2_4      *              0             0             1 
    60 r_2_2_4      *              1             0             1 
    61 u_2_2_4      *              0             0             1 
    62 r_1_2_5      *              1             0             1 
    63 u_1_2_5      *              0             0             1 
    64 r_2_2_5      *              1             0             1 
    65 u_2_2_5      *              0             0             1 
    66 r_1_2_7      *              1             0             1 
    67 u_1_2_7      *              0             0             1 
    68 r_2_2_7      *              1             0             1 
    69 u_2_2_7      *              0             0             1 
    70 r_1_3_5      *              1             0             1 
    71 u_1_3_5      *              0             0             1 
    72 r_2_3_5      *              1             0             1 
    73 u_2_3_5      *              0             0             1 
    74 r_1_3_7      *              1             0             1 
    75 u_1_3_7      *              0             0             1 
    76 r_2_3_7      *              1             0             1 
    77 u_2_3_7      *              0             0             1 
    78 r_1_4_5      *              0             0             1 
    79 u_1_4_5      *              1             0             1 
    80 r_2_4_5      *              1             0             1 
    81 u_2_4_5      *              0             0             1 
    82 r_1_4_7      *              0             0             1 
    83 u_1_4_7      *              1             0             1 
    84 r_2_4_7      *              1             0             1 
    85 u_2_4_7      *              0             0             1 
    86 r_1_7_8      *              1             0             1 
    87 u_1_7_8      *              0             0             1 
    88 r_2_7_8      *              1             0             1 
    89 u_2_7_8      *              0             0             1 

Integer feasibility conditions:

KKT.PE: max.abs.err = 9.09e-13 on row 93
        max.rel.err = 1.45e-16 on row 93
        High quality

KKT.PB: max.abs.err = 1.14e-13 on row 22
        max.rel.err = 1.18e-16 on row 66
        High quality

End of output
